data/lp_files/q3/56_0.lp
\ Model foo
\ LP format - for model browsing. Use MPS format to capture full model detail.
Minimize
  z
Subject To
 allocateEach[1]: x[1,1] + x[2,1] + x[3,1] = 1
 allocateEach[2]: x[1,2] + x[2,2] + x[3,2] = 1
 allocateEach[3]: x[1,3] + x[2,3] + x[3,3] = 1
 allocateEach[4]: x[1,4] + x[2,4] + x[3,4] = 1
 allocateEach[5]: x[1,5] + x[2,5] + x[3,5] = 1
 allocateEach[6]: x[1,6] + x[2,6] + x[3,6] = 1
 allocateEach[7]: x[1,7] + x[2,7] + x[3,7] = 1
 allocateEach[8]: x[1,8] + x[2,8] + x[3,8] = 1
 allocateEach[9]: x[1,9] + x[2,9] + x[3,9] = 1
 allocateEach[10]: x[1,10] + x[2,10] + x[3,10] = 1
 allocateEach[11]: x[1,11] + x[2,11] + x[3,11] = 1
 allocateEach[12]: x[1,12] + x[2,12] + x[3,12] = 1
 allocateEach[13]: x[1,13] + x[2,13] + x[3,13] = 1
 allocateEach[14]: x[1,14] + x[2,14] + x[3,14] = 1
 allocateEach[15]: x[1,15] + x[2,15] + x[3,15] = 1
 allocateEach[16]: x[1,16] + x[2,16] + x[3,16] = 1
 allocateAllCash: cashProportion[1] + cashProportion[2] + cashProportion[3]
   = 1
 findWorstP[1,2]: z + 0.00558784085829236 cashProportion[1]
   - 0.00558784085829236 cashProportion[2] + 0.0802413947250782 x[1,1]
   + 0.1095999105945463 x[1,2] + 0.0250223513634332 x[1,3]
   + 0.068596334376397 x[1,4] + 0.0150089405453733 x[1,5]
   + 0.0320406794814484 x[1,6] + 0.0546155565489495 x[1,7]
   + 0.0658806437192669 x[1,8] + 0.0440768886902101 x[1,9]
   + 0.0878073312472061 x[1,10] + 0.1038109074653554 x[1,11]
   + 0.0224519445686187 x[1,12] + 0.076586946803755 x[1,13]
   + 0.0387349128296826 x[1,14] + 0.0630755476084041 x[1,15]
   + 0.106861868573983 x[1,16] - 0.0802413947250782 x[2,1]
   - 0.1095999105945463 x[2,2] - 0.0250223513634332 x[2,3]
   - 0.068596334376397 x[2,4] - 0.0150089405453733 x[2,5]
   - 0.0320406794814484 x[2,6] - 0.0546155565489495 x[2,7]
   - 0.0658806437192669 x[2,8] - 0.0440768886902101 x[2,9]
   - 0.0878073312472061 x[2,10] - 0.1038109074653554 x[2,11]
   - 0.0224519445686187 x[2,12] - 0.076586946803755 x[2,13]
   - 0.0387349128296826 x[2,14] - 0.0630755476084041 x[2,15]
   - 0.106861868573983 x[2,16] >= 0
 findWorstP[1,3]: z + 0.00558784085829236 cashProportion[1]
   - 0.00558784085829236 cashProportion[3] + 0.0802413947250782 x[1,1]
   + 0.1095999105945463 x[1,2] + 0.0250223513634332 x[1,3]
   + 0.068596334376397 x[1,4] + 0.0150089405453733 x[1,5]
   + 0.0320406794814484 x[1,6] + 0.0546155565489495 x[1,7]
   + 0.0658806437192669 x[1,8] + 0.0440768886902101 x[1,9]
   + 0.0878073312472061 x[1,10] + 0.1038109074653554 x[1,11]
   + 0.0224519445686187 x[1,12] + 0.076586946803755 x[1,13]
   + 0.0387349128296826 x[1,14] + 0.0630755476084041 x[1,15]
   + 0.106861868573983 x[1,16] - 0.0802413947250782 x[3,1]
   - 0.1095999105945463 x[3,2] - 0.0250223513634332 x[3,3]
   - 0.068596334376397 x[3,4] - 0.0150089405453733 x[3,5]
   - 0.0320406794814484 x[3,6] - 0.0546155565489495 x[3,7]
   - 0.0658806437192669 x[3,8] - 0.0440768886902101 x[3,9]
   - 0.0878073312472061 x[3,10] - 0.1038109074653554 x[3,11]
   - 0.0224519445686187 x[3,12] - 0.076586946803755 x[3,13]
   - 0.0387349128296826 x[3,14] - 0.0630755476084041 x[3,15]
   - 0.106861868573983 x[3,16] >= 0
 findWorstP[2,1]: z - 0.00509325754566105 cashProportion[1]
   + 0.00509325754566105 cashProportion[2] - 0.0673736108140044 x[1,1]
   - 0.0697572553453738 x[1,2] - 0.0759099104605323 x[1,3]
   - 0.0833664395073801 x[1,4] - 0.0231539488025751 x[1,5]
   - 0.079882651346148 x[1,6] - 0.0881337285701189 x[1,7]
   - 0.0476932636575701 x[1,8] - 0.085576913282197 x[1,9]
   - 0.0331571066222535 x[1,10] - 0.0441279833756074 x[1,11]
   - 0.0629730362945533 x[1,12] - 0.0343183693426642 x[1,13]
   - 0.0669152176348949 x[1,14] - 0.0958041744338844 x[1,15]
   - 0.0367631329645815 x[1,16] + 0.0673736108140044 x[2,1]
   + 0.0697572553453738 x[2,2] + 0.0759099104605323 x[2,3]
   + 0.0833664395073801 x[2,4] + 0.0231539488025751 x[2,5]
   + 0.079882651346148 x[2,6] + 0.0881337285701189 x[2,7]
   + 0.0476932636575701 x[2,8] + 0.085576913282197 x[2,9]
   + 0.0331571066222535 x[2,10] + 0.0441279833756074 x[2,11]
   + 0.0629730362945533 x[2,12] + 0.0343183693426642 x[2,13]
   + 0.0669152176348949 x[2,14] + 0.0958041744338844 x[2,15]
   + 0.0367631329645815 x[2,16] >= 0
 findWorstP[2,3]: z + 0.00509325754566105 cashProportion[2]
   - 0.00509325754566105 cashProportion[3] + 0.0673736108140044 x[2,1]
   + 0.0697572553453738 x[2,2] + 0.0759099104605323 x[2,3]
   + 0.0833664395073801 x[2,4] + 0.0231539488025751 x[2,5]
   + 0.079882651346148 x[2,6] + 0.0881337285701189 x[2,7]
   + 0.0476932636575701 x[2,8] + 0.085576913282197 x[2,9]
   + 0.0331571066222535 x[2,10] + 0.0441279833756074 x[2,11]
   + 0.0629730362945533 x[2,12] + 0.0343183693426642 x[2,13]
   + 0.0669152176348949 x[2,14] + 0.0958041744338844 x[2,15]
   + 0.0367631329645815 x[2,16] - 0.0673736108140044 x[3,1]
   - 0.0697572553453738 x[3,2] - 0.0759099104605323 x[3,3]
   - 0.0833664395073801 x[3,4] - 0.0231539488025751 x[3,5]
   - 0.079882651346148 x[3,6] - 0.0881337285701189 x[3,7]
   - 0.0476932636575701 x[3,8] - 0.085576913282197 x[3,9]
   - 0.0331571066222535 x[3,10] - 0.0441279833756074 x[3,11]
   - 0.0629730362945533 x[3,12] - 0.0343183693426642 x[3,13]
   - 0.0669152176348949 x[3,14] - 0.0958041744338844 x[3,15]
   - 0.0367631329645815 x[3,16] >= 0
 findWorstP[3,1]: z - 0.00609332537138818 cashProportion[1]
   + 0.00609332537138818 cashProportion[3] - 0.0738754768027103 x[1,1]
   - 0.0403500006093325 x[1,2] - 0.0301619605883715 x[1,3]
   - 0.0929232119136698 x[1,4] - 0.0954580352681672 x[1,5]
   - 0.0121988373935191 x[1,6] - 0.0377420573503784 x[1,7]
   - 0.0734367573759704 x[1,8] - 0.1038546376299402 x[1,9]
   - 0.1056826352413566 x[1,10] - 0.0152698733806988 x[1,11]
   - 0.0726568117284327 x[1,12] - 0.0268837515385647 x[1,13]
   - 0.0658201006617351 x[1,14] - 0.1082052719451113 x[1,15]
   - 0.0393872552006532 x[1,16] + 0.0738754768027103 x[3,1]
   + 0.0403500006093325 x[3,2] + 0.0301619605883715 x[3,3]
   + 0.0929232119136698 x[3,4] + 0.0954580352681672 x[3,5]
   + 0.0121988373935191 x[3,6] + 0.0377420573503784 x[3,7]
   + 0.0734367573759704 x[3,8] + 0.1038546376299402 x[3,9]
   + 0.1056826352413566 x[3,10] + 0.0152698733806988 x[3,11]
   + 0.0726568117284327 x[3,12] + 0.0268837515385647 x[3,13]
   + 0.0658201006617351 x[3,14] + 0.1082052719451113 x[3,15]
   + 0.0393872552006532 x[3,16] >= 0
 findWorstP[3,2]: z - 0.00609332537138818 cashProportion[2]
   + 0.00609332537138818 cashProportion[3] - 0.0738754768027103 x[2,1]
   - 0.0403500006093325 x[2,2] - 0.0301619605883715 x[2,3]
   - 0.0929232119136698 x[2,4] - 0.0954580352681672 x[2,5]
   - 0.0121988373935191 x[2,6] - 0.0377420573503784 x[2,7]
   - 0.0734367573759704 x[2,8] - 0.1038546376299402 x[2,9]
   - 0.1056826352413566 x[2,10] - 0.0152698733806988 x[2,11]
   - 0.0726568117284327 x[2,12] - 0.0268837515385647 x[2,13]
   - 0.0658201006617351 x[2,14] - 0.1082052719451113 x[2,15]
   - 0.0393872552006532 x[2,16] + 0.0738754768027103 x[3,1]
   + 0.0403500006093325 x[3,2] + 0.0301619605883715 x[3,3]
   + 0.0929232119136698 x[3,4] + 0.0954580352681672 x[3,5]
   + 0.0121988373935191 x[3,6] + 0.0377420573503784 x[3,7]
   + 0.0734367573759704 x[3,8] + 0.1038546376299402 x[3,9]
   + 0.1056826352413566 x[3,10] + 0.0152698733806988 x[3,11]
   + 0.0726568117284327 x[3,12] + 0.0268837515385647 x[3,13]
   + 0.0658201006617351 x[3,14] + 0.1082052719451113 x[3,15]
   + 0.0393872552006532 x[3,16] >= 0
Bounds
 z <= 1
 -infinity <= cashProportion[1] <= 1
 -infinity <= cashProportion[2] <= 1
 -infinity <= cashProportion[3] <= 1
Binaries
 x[1,1] x[1,2] x[1,3] x[1,4] x[1,5] x[1,6] x[1,7] x[1,8] x[1,9] x[1,10]
 x[1,11] x[1,12] x[1,13] x[1,14] x[1,15] x[1,16] x[2,1] x[2,2] x[2,3]
 x[2,4] x[2,5] x[2,6] x[2,7] x[2,8] x[2,9] x[2,10] x[2,11] x[2,12] x[2,13]
 x[2,14] x[2,15] x[2,16] x[3,1] x[3,2] x[3,3] x[3,4] x[3,5] x[3,6] x[3,7]
 x[3,8] x[3,9] x[3,10] x[3,11] x[3,12] x[3,13] x[3,14] x[3,15] x[3,16]
End
