data/mps_files/q3/56_0.mps
NAME foo
ROWS
 N  OBJ
 E  allocateEach[1]
 E  allocateEach[2]
 E  allocateEach[3]
 E  allocateEach[4]
 E  allocateEach[5]
 E  allocateEach[6]
 E  allocateEach[7]
 E  allocateEach[8]
 E  allocateEach[9]
 E  allocateEach[10]
 E  allocateEach[11]
 E  allocateEach[12]
 E  allocateEach[13]
 E  allocateEach[14]
 E  allocateEach[15]
 E  allocateEach[16]
 E  allocateAllCash
 G  findWorstP[1,2]
 G  findWorstP[1,3]
 G  findWorstP[2,1]
 G  findWorstP[2,3]
 G  findWorstP[3,1]
 G  findWorstP[3,2]
COLUMNS
    z         OBJ       1
    z         findWorstP[1,2]  1
    z         findWorstP[1,3]  1
    z         findWorstP[2,1]  1
    z         findWorstP[2,3]  1
    z         findWorstP[3,1]  1
    z         findWorstP[3,2]  1
    cashProportion[1]  allocateAllCash  1
    cashProportion[1]  findWorstP[1,2]  5.5878408582923558e-03
    cashProportion[1]  findWorstP[1,3]  5.5878408582923558e-03
    cashProportion[1]  findWorstP[2,1]  -5.0932575456610540e-03
    cashProportion[1]  findWorstP[3,1]  -6.0933253713881816e-03
    cashProportion[2]  allocateAllCash  1
    cashProportion[2]  findWorstP[1,2]  -5.5878408582923558e-03
    cashProportion[2]  findWorstP[2,1]  5.0932575456610540e-03
    cashProportion[2]  findWorstP[2,3]  5.0932575456610540e-03
    cashProportion[2]  findWorstP[3,2]  -6.0933253713881816e-03
    cashProportion[3]  allocateAllCash  1
    cashProportion[3]  findWorstP[1,3]  -5.5878408582923558e-03
    cashProportion[3]  findWorstP[2,3]  -5.0932575456610540e-03
    cashProportion[3]  findWorstP[3,1]  6.0933253713881816e-03
    cashProportion[3]  findWorstP[3,2]  6.0933253713881816e-03
    MARKER    'MARKER'                 'INTORG'
    x[1,1]    allocateEach[1]  1
    x[1,1]    findWorstP[1,2]  8.0241394725078227e-02
    x[1,1]    findWorstP[1,3]  8.0241394725078227e-02
    x[1,1]    findWorstP[2,1]  -6.7373610814004420e-02
    x[1,1]    findWorstP[3,1]  -7.3875476802710310e-02
    x[1,2]    allocateEach[2]  1
    x[1,2]    findWorstP[1,2]  1.0959991059454625e-01
    x[1,2]    findWorstP[1,3]  1.0959991059454625e-01
    x[1,2]    findWorstP[2,1]  -6.9757255345373789e-02
    x[1,2]    findWorstP[3,1]  -4.0350000609332540e-02
    x[1,3]    allocateEach[3]  1
    x[1,3]    findWorstP[1,2]  2.5022351363433167e-02
    x[1,3]    findWorstP[1,3]  2.5022351363433167e-02
    x[1,3]    findWorstP[2,1]  -7.5909910460532332e-02
    x[1,3]    findWorstP[3,1]  -0.0301619605883715
    x[1,4]    allocateEach[4]  1
    x[1,4]    findWorstP[1,2]  6.8596334376396950e-02
    x[1,4]    findWorstP[1,3]  6.8596334376396950e-02
    x[1,4]    findWorstP[2,1]  -8.3366439507380125e-02
    x[1,4]    findWorstP[3,1]  -9.2923211913669757e-02
    x[1,5]    allocateEach[5]  1
    x[1,5]    findWorstP[1,2]  1.5008940545373268e-02
    x[1,5]    findWorstP[1,3]  1.5008940545373268e-02
    x[1,5]    findWorstP[2,1]  -2.3153948802575149e-02
    x[1,5]    findWorstP[3,1]  -9.5458035268167249e-02
    x[1,6]    allocateEach[6]  1
    x[1,6]    findWorstP[1,2]  3.2040679481448370e-02
    x[1,6]    findWorstP[1,3]  3.2040679481448370e-02
    x[1,6]    findWorstP[2,1]  -7.9882651346147970e-02
    x[1,6]    findWorstP[3,1]  -1.2198837393519138e-02
    x[1,7]    allocateEach[7]  1
    x[1,7]    findWorstP[1,2]  5.4615556548949486e-02
    x[1,7]    findWorstP[1,3]  5.4615556548949486e-02
    x[1,7]    findWorstP[2,1]  -8.8133728570118863e-02
    x[1,7]    findWorstP[3,1]  -3.7742057350378395e-02
    x[1,8]    allocateEach[8]  1
    x[1,8]    findWorstP[1,2]  6.5880643719266871e-02
    x[1,8]    findWorstP[1,3]  6.5880643719266871e-02
    x[1,8]    findWorstP[2,1]  -0.0476932636575701
    x[1,8]    findWorstP[3,1]  -7.3436757375970371e-02
    x[1,9]    allocateEach[9]  1
    x[1,9]    findWorstP[1,2]  0.0440768886902101
    x[1,9]    findWorstP[1,3]  0.0440768886902101
    x[1,9]    findWorstP[2,1]  -8.5576913282197020e-02
    x[1,9]    findWorstP[3,1]  -1.0385463762994016e-01
    x[1,10]   allocateEach[10]  1
    x[1,10]   findWorstP[1,2]  8.7807331247206064e-02
    x[1,10]   findWorstP[1,3]  8.7807331247206064e-02
    x[1,10]   findWorstP[2,1]  -3.3157106622253463e-02
    x[1,10]   findWorstP[3,1]  -1.0568263524135661e-01
    x[1,11]   allocateEach[11]  1
    x[1,11]   findWorstP[1,2]  1.0381090746535537e-01
    x[1,11]   findWorstP[1,3]  1.0381090746535537e-01
    x[1,11]   findWorstP[2,1]  -4.4127983375607367e-02
    x[1,11]   findWorstP[3,1]  -1.5269873380698781e-02
    x[1,12]   allocateEach[12]  1
    x[1,12]   findWorstP[1,2]  2.2451944568618685e-02
    x[1,12]   findWorstP[1,3]  2.2451944568618685e-02
    x[1,12]   findWorstP[2,1]  -6.2973036294553267e-02
    x[1,12]   findWorstP[3,1]  -7.2656811728432663e-02
    x[1,13]   allocateEach[13]  1
    x[1,13]   findWorstP[1,2]  7.6586946803755024e-02
    x[1,13]   findWorstP[1,3]  7.6586946803755024e-02
    x[1,13]   findWorstP[2,1]  -3.4318369342664176e-02
    x[1,13]   findWorstP[3,1]  -2.6883751538564656e-02
    x[1,14]   allocateEach[14]  1
    x[1,14]   findWorstP[1,2]  3.8734912829682611e-02
    x[1,14]   findWorstP[1,3]  3.8734912829682611e-02
    x[1,14]   findWorstP[2,1]  -6.6915217634894927e-02
    x[1,14]   findWorstP[3,1]  -6.5820100661735145e-02
    x[1,15]   allocateEach[15]  1
    x[1,15]   findWorstP[1,2]  6.3075547608404114e-02
    x[1,15]   findWorstP[1,3]  6.3075547608404114e-02
    x[1,15]   findWorstP[2,1]  -9.5804174433884420e-02
    x[1,15]   findWorstP[3,1]  -1.0820527194511133e-01
    x[1,16]   allocateEach[16]  1
    x[1,16]   findWorstP[1,2]  1.0686186857398301e-01
    x[1,16]   findWorstP[1,3]  1.0686186857398301e-01
    x[1,16]   findWorstP[2,1]  -3.6763132964581481e-02
    x[1,16]   findWorstP[3,1]  -3.9387255200653205e-02
    x[2,1]    allocateEach[1]  1
    x[2,1]    findWorstP[1,2]  -8.0241394725078227e-02
    x[2,1]    findWorstP[2,1]  6.7373610814004420e-02
    x[2,1]    findWorstP[2,3]  6.7373610814004420e-02
    x[2,1]    findWorstP[3,2]  -7.3875476802710310e-02
    x[2,2]    allocateEach[2]  1
    x[2,2]    findWorstP[1,2]  -1.0959991059454625e-01
    x[2,2]    findWorstP[2,1]  6.9757255345373789e-02
    x[2,2]    findWorstP[2,3]  6.9757255345373789e-02
    x[2,2]    findWorstP[3,2]  -4.0350000609332540e-02
    x[2,3]    allocateEach[3]  1
    x[2,3]    findWorstP[1,2]  -2.5022351363433167e-02
    x[2,3]    findWorstP[2,1]  7.5909910460532332e-02
    x[2,3]    findWorstP[2,3]  7.5909910460532332e-02
    x[2,3]    findWorstP[3,2]  -0.0301619605883715
    x[2,4]    allocateEach[4]  1
    x[2,4]    findWorstP[1,2]  -6.8596334376396950e-02
    x[2,4]    findWorstP[2,1]  8.3366439507380125e-02
    x[2,4]    findWorstP[2,3]  8.3366439507380125e-02
    x[2,4]    findWorstP[3,2]  -9.2923211913669757e-02
    x[2,5]    allocateEach[5]  1
    x[2,5]    findWorstP[1,2]  -1.5008940545373268e-02
    x[2,5]    findWorstP[2,1]  2.3153948802575149e-02
    x[2,5]    findWorstP[2,3]  2.3153948802575149e-02
    x[2,5]    findWorstP[3,2]  -9.5458035268167249e-02
    x[2,6]    allocateEach[6]  1
    x[2,6]    findWorstP[1,2]  -3.2040679481448370e-02
    x[2,6]    findWorstP[2,1]  7.9882651346147970e-02
    x[2,6]    findWorstP[2,3]  7.9882651346147970e-02
    x[2,6]    findWorstP[3,2]  -1.2198837393519138e-02
    x[2,7]    allocateEach[7]  1
    x[2,7]    findWorstP[1,2]  -5.4615556548949486e-02
    x[2,7]    findWorstP[2,1]  8.8133728570118863e-02
    x[2,7]    findWorstP[2,3]  8.8133728570118863e-02
    x[2,7]    findWorstP[3,2]  -3.7742057350378395e-02
    x[2,8]    allocateEach[8]  1
    x[2,8]    findWorstP[1,2]  -6.5880643719266871e-02
    x[2,8]    findWorstP[2,1]  0.0476932636575701
    x[2,8]    findWorstP[2,3]  0.0476932636575701
    x[2,8]    findWorstP[3,2]  -7.3436757375970371e-02
    x[2,9]    allocateEach[9]  1
    x[2,9]    findWorstP[1,2]  -0.0440768886902101
    x[2,9]    findWorstP[2,1]  8.5576913282197020e-02
    x[2,9]    findWorstP[2,3]  8.5576913282197020e-02
    x[2,9]    findWorstP[3,2]  -1.0385463762994016e-01
    x[2,10]   allocateEach[10]  1
    x[2,10]   findWorstP[1,2]  -8.7807331247206064e-02
    x[2,10]   findWorstP[2,1]  3.3157106622253463e-02
    x[2,10]   findWorstP[2,3]  3.3157106622253463e-02
    x[2,10]   findWorstP[3,2]  -1.0568263524135661e-01
    x[2,11]   allocateEach[11]  1
    x[2,11]   findWorstP[1,2]  -1.0381090746535537e-01
    x[2,11]   findWorstP[2,1]  4.4127983375607367e-02
    x[2,11]   findWorstP[2,3]  4.4127983375607367e-02
    x[2,11]   findWorstP[3,2]  -1.5269873380698781e-02
    x[2,12]   allocateEach[12]  1
    x[2,12]   findWorstP[1,2]  -2.2451944568618685e-02
    x[2,12]   findWorstP[2,1]  6.2973036294553267e-02
    x[2,12]   findWorstP[2,3]  6.2973036294553267e-02
    x[2,12]   findWorstP[3,2]  -7.2656811728432663e-02
    x[2,13]   allocateEach[13]  1
    x[2,13]   findWorstP[1,2]  -7.6586946803755024e-02
    x[2,13]   findWorstP[2,1]  3.4318369342664176e-02
    x[2,13]   findWorstP[2,3]  3.4318369342664176e-02
    x[2,13]   findWorstP[3,2]  -2.6883751538564656e-02
    x[2,14]   allocateEach[14]  1
    x[2,14]   findWorstP[1,2]  -3.8734912829682611e-02
    x[2,14]   findWorstP[2,1]  6.6915217634894927e-02
    x[2,14]   findWorstP[2,3]  6.6915217634894927e-02
    x[2,14]   findWorstP[3,2]  -6.5820100661735145e-02
    x[2,15]   allocateEach[15]  1
    x[2,15]   findWorstP[1,2]  -6.3075547608404114e-02
    x[2,15]   findWorstP[2,1]  9.5804174433884420e-02
    x[2,15]   findWorstP[2,3]  9.5804174433884420e-02
    x[2,15]   findWorstP[3,2]  -1.0820527194511133e-01
    x[2,16]   allocateEach[16]  1
    x[2,16]   findWorstP[1,2]  -1.0686186857398301e-01
    x[2,16]   findWorstP[2,1]  3.6763132964581481e-02
    x[2,16]   findWorstP[2,3]  3.6763132964581481e-02
    x[2,16]   findWorstP[3,2]  -3.9387255200653205e-02
    x[3,1]    allocateEach[1]  1
    x[3,1]    findWorstP[1,3]  -8.0241394725078227e-02
    x[3,1]    findWorstP[2,3]  -6.7373610814004420e-02
    x[3,1]    findWorstP[3,1]  7.3875476802710310e-02
    x[3,1]    findWorstP[3,2]  7.3875476802710310e-02
    x[3,2]    allocateEach[2]  1
    x[3,2]    findWorstP[1,3]  -1.0959991059454625e-01
    x[3,2]    findWorstP[2,3]  -6.9757255345373789e-02
    x[3,2]    findWorstP[3,1]  4.0350000609332540e-02
    x[3,2]    findWorstP[3,2]  4.0350000609332540e-02
    x[3,3]    allocateEach[3]  1
    x[3,3]    findWorstP[1,3]  -2.5022351363433167e-02
    x[3,3]    findWorstP[2,3]  -7.5909910460532332e-02
    x[3,3]    findWorstP[3,1]  0.0301619605883715
    x[3,3]    findWorstP[3,2]  0.0301619605883715
    x[3,4]    allocateEach[4]  1
    x[3,4]    findWorstP[1,3]  -6.8596334376396950e-02
    x[3,4]    findWorstP[2,3]  -8.3366439507380125e-02
    x[3,4]    findWorstP[3,1]  9.2923211913669757e-02
    x[3,4]    findWorstP[3,2]  9.2923211913669757e-02
    x[3,5]    allocateEach[5]  1
    x[3,5]    findWorstP[1,3]  -1.5008940545373268e-02
    x[3,5]    findWorstP[2,3]  -2.3153948802575149e-02
    x[3,5]    findWorstP[3,1]  9.5458035268167249e-02
    x[3,5]    findWorstP[3,2]  9.5458035268167249e-02
    x[3,6]    allocateEach[6]  1
    x[3,6]    findWorstP[1,3]  -3.2040679481448370e-02
    x[3,6]    findWorstP[2,3]  -7.9882651346147970e-02
    x[3,6]    findWorstP[3,1]  1.2198837393519138e-02
    x[3,6]    findWorstP[3,2]  1.2198837393519138e-02
    x[3,7]    allocateEach[7]  1
    x[3,7]    findWorstP[1,3]  -5.4615556548949486e-02
    x[3,7]    findWorstP[2,3]  -8.8133728570118863e-02
    x[3,7]    findWorstP[3,1]  3.7742057350378395e-02
    x[3,7]    findWorstP[3,2]  3.7742057350378395e-02
    x[3,8]    allocateEach[8]  1
    x[3,8]    findWorstP[1,3]  -6.5880643719266871e-02
    x[3,8]    findWorstP[2,3]  -0.0476932636575701
    x[3,8]    findWorstP[3,1]  7.3436757375970371e-02
    x[3,8]    findWorstP[3,2]  7.3436757375970371e-02
    x[3,9]    allocateEach[9]  1
    x[3,9]    findWorstP[1,3]  -0.0440768886902101
    x[3,9]    findWorstP[2,3]  -8.5576913282197020e-02
    x[3,9]    findWorstP[3,1]  1.0385463762994016e-01
    x[3,9]    findWorstP[3,2]  1.0385463762994016e-01
    x[3,10]   allocateEach[10]  1
    x[3,10]   findWorstP[1,3]  -8.7807331247206064e-02
    x[3,10]   findWorstP[2,3]  -3.3157106622253463e-02
    x[3,10]   findWorstP[3,1]  1.0568263524135661e-01
    x[3,10]   findWorstP[3,2]  1.0568263524135661e-01
    x[3,11]   allocateEach[11]  1
    x[3,11]   findWorstP[1,3]  -1.0381090746535537e-01
    x[3,11]   findWorstP[2,3]  -4.4127983375607367e-02
    x[3,11]   findWorstP[3,1]  1.5269873380698781e-02
    x[3,11]   findWorstP[3,2]  1.5269873380698781e-02
    x[3,12]   allocateEach[12]  1
    x[3,12]   findWorstP[1,3]  -2.2451944568618685e-02
    x[3,12]   findWorstP[2,3]  -6.2973036294553267e-02
    x[3,12]   findWorstP[3,1]  7.2656811728432663e-02
    x[3,12]   findWorstP[3,2]  7.2656811728432663e-02
    x[3,13]   allocateEach[13]  1
    x[3,13]   findWorstP[1,3]  -7.6586946803755024e-02
    x[3,13]   findWorstP[2,3]  -3.4318369342664176e-02
    x[3,13]   findWorstP[3,1]  2.6883751538564656e-02
    x[3,13]   findWorstP[3,2]  2.6883751538564656e-02
    x[3,14]   allocateEach[14]  1
    x[3,14]   findWorstP[1,3]  -3.8734912829682611e-02
    x[3,14]   findWorstP[2,3]  -6.6915217634894927e-02
    x[3,14]   findWorstP[3,1]  6.5820100661735145e-02
    x[3,14]   findWorstP[3,2]  6.5820100661735145e-02
    x[3,15]   allocateEach[15]  1
    x[3,15]   findWorstP[1,3]  -6.3075547608404114e-02
    x[3,15]   findWorstP[2,3]  -9.5804174433884420e-02
    x[3,15]   findWorstP[3,1]  1.0820527194511133e-01
    x[3,15]   findWorstP[3,2]  1.0820527194511133e-01
    x[3,16]   allocateEach[16]  1
    x[3,16]   findWorstP[1,3]  -1.0686186857398301e-01
    x[3,16]   findWorstP[2,3]  -3.6763132964581481e-02
    x[3,16]   findWorstP[3,1]  3.9387255200653205e-02
    x[3,16]   findWorstP[3,2]  3.9387255200653205e-02
    MARKER    'MARKER'                 'INTEND'
RHS
    RHS1      allocateEach[1]  1
    RHS1      allocateEach[2]  1
    RHS1      allocateEach[3]  1
    RHS1      allocateEach[4]  1
    RHS1      allocateEach[5]  1
    RHS1      allocateEach[6]  1
    RHS1      allocateEach[7]  1
    RHS1      allocateEach[8]  1
    RHS1      allocateEach[9]  1
    RHS1      allocateEach[10]  1
    RHS1      allocateEach[11]  1
    RHS1      allocateEach[12]  1
    RHS1      allocateEach[13]  1
    RHS1      allocateEach[14]  1
    RHS1      allocateEach[15]  1
    RHS1      allocateEach[16]  1
    RHS1      allocateAllCash  1
BOUNDS
 UP BND1      z         1
 MI BND1      cashProportion[1]
 UP BND1      cashProportion[1]  1
 MI BND1      cashProportion[2]
 UP BND1      cashProportion[2]  1
 MI BND1      cashProportion[3]
 UP BND1      cashProportion[3]  1
 BV BND1      x[1,1]  
 BV BND1      x[1,2]  
 BV BND1      x[1,3]  
 BV BND1      x[1,4]  
 BV BND1      x[1,5]  
 BV BND1      x[1,6]  
 BV BND1      x[1,7]  
 BV BND1      x[1,8]  
 BV BND1      x[1,9]  
 BV BND1      x[1,10] 
 BV BND1      x[1,11] 
 BV BND1      x[1,12] 
 BV BND1      x[1,13] 
 BV BND1      x[1,14] 
 BV BND1      x[1,15] 
 BV BND1      x[1,16] 
 BV BND1      x[2,1]  
 BV BND1      x[2,2]  
 BV BND1      x[2,3]  
 BV BND1      x[2,4]  
 BV BND1      x[2,5]  
 BV BND1      x[2,6]  
 BV BND1      x[2,7]  
 BV BND1      x[2,8]  
 BV BND1      x[2,9]  
 BV BND1      x[2,10] 
 BV BND1      x[2,11] 
 BV BND1      x[2,12] 
 BV BND1      x[2,13] 
 BV BND1      x[2,14] 
 BV BND1      x[2,15] 
 BV BND1      x[2,16] 
 BV BND1      x[3,1]  
 BV BND1      x[3,2]  
 BV BND1      x[3,3]  
 BV BND1      x[3,4]  
 BV BND1      x[3,5]  
 BV BND1      x[3,6]  
 BV BND1      x[3,7]  
 BV BND1      x[3,8]  
 BV BND1      x[3,9]  
 BV BND1      x[3,10] 
 BV BND1      x[3,11] 
 BV BND1      x[3,12] 
 BV BND1      x[3,13] 
 BV BND1      x[3,14] 
 BV BND1      x[3,15] 
 BV BND1      x[3,16] 
ENDATA
